NAME : 14.77411.tour
COMMENT : Length = 77411
COMMENT : Found by LKH-3 [Keld Helsgaun] Thu Jun 19 18:16:21 2025
TYPE : TOUR
DIMENSION : 100
TOUR_SECTION
1
29
91
49
84
25
66
31
35
32
45
87
73
65
6
30
53
80
20
86
37
99
10
51
69
78
74
39
48
4
2
76
85
67
13
92
81
38
71
79
95
19
100
64
11
89
94
46
33
62
61
16
9
41
60
83
8
98
43
34
14
97
12
96
72
36
57
24
40
58
28
22
42
3
77
50
27
21
82
54
63
75
90
17
26
23
44
18
70
93
15
5
59
56
52
55
88
7
47
68
-1
EOF
